experiment/data/lkh-res/Vrp-Set-A-n39/Vrp-Set-A-n39-lkh/0.lkh1.vrp
NAME : 0
COMMENT : CVRP Instance
TYPE : CVRP
DIMENSION : 39
EDGE_WEIGHT_TYPE : EUC_2D
CAPACITY : 100
NODE_COORD_SECTION
1	900	3500
2	4300	1900
3	7900	3500
4	9300	700
5	1300	3500
6	6700	1300
7	3100	7700
8	8100	700
9	2700	4900
10	2700	3500
11	6900	2300
12	3100	5100
13	2700	2700
14	1500	8300
15	700	3500
16	5300	2500
17	7500	1300
18	4700	4900
19	2500	3300
20	100	2300
21	4500	1100
22	100	4700
23	9300	1500
24	4100	900
25	7500	5500
26	300	100
27	5100	6700
28	5700	9100
29	2100	9700
30	5500	1300
31	300	7100
32	3700	1900
33	7300	2100
34	1900	1900
35	7500	7300
36	9300	4900
37	4100	8700
38	9700	7300
39	4500	2900
DEMAND_SECTION
1	0
2	5
3	24
4	3
5	20
6	26
7	23
8	15
9	3
10	20
11	16
12	9
13	21
14	3
15	24
16	14
17	6
18	6
19	13
20	5
21	3
22	3
23	20
24	16
25	22
26	10
27	12
28	20
29	24
30	6
31	1
32	2
33	13
34	7
35	6
36	24
37	19
38	4
39	7
DEPOT_SECTION
1
-1
EOF
