experiment/data/lkh-res/Vrp-Set-A-n39/Vrp-Set-A-n39-lkh/0.lkh1.tour
NAME : 0.82897.tour
COMMENT : Length = 82897
COMMENT : Found by LKH-3 [Keld Helsgaun] Tue Apr  9 00:42:21 2024
TYPE : TOUR
DIMENSION : 43
TOUR_SECTION
1
7
37
28
29
14
31
22
41
11
33
17
8
4
23
3
40
5
19
13
34
26
20
15
43
32
2
24
21
30
6
16
39
10
42
18
25
36
38
35
27
12
9
-1
EOF
